(written by ASE)

424 atoms
4 atom types

0.0      25.865839999999999  xlo xhi
0.0      25.865839999999999  ylo yhi
0.0      25.865839999999999  zlo zhi

Masses

1      12.010999996910238 # C
2      1.0079999997406976 # H
3      15.998999995884349 # O
4      65.379999983181364 # Zn

Atoms # atomic

     1   4      7.5881838832799993      7.5881838832799993           5.34473611672
     2   4      18.277656116719999      18.277656116719999      20.521103883279999
     3   4      18.277656116719999      18.277656116719999           5.34473611672
     4   4      7.5881838832799993      7.5881838832799993      20.521103883279999
     5   4      18.277656116719999      7.5881838832799993      20.521103883279999
     6   4      7.5881838832799993      18.277656116719999           5.34473611672
     7   4      7.5881838832799993      18.277656116719999      20.521103883279999
     8   4      18.277656116719999      7.5881838832799993           5.34473611672
     9   4           5.34473611672      7.5881838832799993      7.5881838832799993
    10   4      20.521103883279999      18.277656116719999      18.277656116719999
    11   4           5.34473611672      18.277656116719999      18.277656116719999
    12   4      20.521103883279999      7.5881838832799993      7.5881838832799993
    13   4      20.521103883279999      18.277656116719999      7.5881838832799993
    14   4           5.34473611672      7.5881838832799993      18.277656116719999
    15   4      20.521103883279999      7.5881838832799993      18.277656116719999
    16   4           5.34473611672      18.277656116719999      7.5881838832799993
    17   4      7.5881838832799993           5.34473611672      7.5881838832799993
    18   4      18.277656116719999      20.521103883279999      18.277656116719999
    19   4      18.277656116719999           5.34473611672      18.277656116719999
    20   4      7.5881838832799993      20.521103883279999      7.5881838832799993
    21   4      7.5881838832799993      20.521103883279999      18.277656116719999
    22   4      18.277656116719999           5.34473611672      7.5881838832799993
    23   4      18.277656116719999      20.521103883279999      7.5881838832799993
    24   4      7.5881838832799993           5.34473611672      18.277656116719999
    25   4           5.34473611672      20.521103883279999      20.521103883279999
    26   4      20.521103883279999           5.34473611672           5.34473611672
    27   4           5.34473611672           5.34473611672           5.34473611672
    28   4      20.521103883279999      20.521103883279999      20.521103883279999
    29   4      20.521103883279999           5.34473611672      20.521103883279999
    30   4           5.34473611672      20.521103883279999           5.34473611672
    31   4      20.521103883279999      20.521103883279999           5.34473611672
    32   4           5.34473611672           5.34473611672      20.521103883279999
    33   3      6.4664599999999997      6.4664599999999997      6.4664599999999997
    34   3      19.399380000000001      19.399380000000001      19.399380000000001
    35   3      19.399380000000001      19.399380000000001      6.4664599999999997
    36   3      6.4664599999999997      6.4664599999999997      19.399380000000001
    37   3      19.399380000000001      6.4664599999999997      19.399380000000001
    38   3      6.4664599999999997      19.399380000000001      6.4664599999999997
    39   3      6.4664599999999997      19.399380000000001      19.399380000000001
    40   3      19.399380000000001      6.4664599999999997      6.4664599999999997
    41   3      7.2693874052799998      9.4758987523199991      5.6635325947200004
    42   3      18.596452594719999      16.389941247679999      20.202307405279999
    43   3      18.596452594719999      16.389941247679999      5.6635325947200004
    44   3      7.2693874052799998      9.4758987523199991      20.202307405279999
    45   3      18.596452594719999      9.4758987523199991      20.202307405279999
    46   3      7.2693874052799998      16.389941247679999      5.6635325947200004
    47   3      7.2693874052799998      16.389941247679999      20.202307405279999
    48   3      18.596452594719999      9.4758987523199991      5.6635325947200004
    49   3      5.6635325947200004      7.2693874052799998      9.4758987523199991
    50   3      20.202307405279999      18.596452594719999      16.389941247679999
    51   3      5.6635325947200004      18.596452594719999      16.389941247679999
    52   3      20.202307405279999      7.2693874052799998      9.4758987523199991
    53   3      20.202307405279999      18.596452594719999      9.4758987523199991
    54   3      5.6635325947200004      7.2693874052799998      16.389941247679999
    55   3      20.202307405279999      7.2693874052799998      16.389941247679999
    56   3      5.6635325947200004      18.596452594719999      9.4758987523199991
    57   3      9.4758987523199991      5.6635325947200004      7.2693874052799998
    58   3      16.389941247679999      20.202307405279999      18.596452594719999
    59   3      16.389941247679999      5.6635325947200004      18.596452594719999
    60   3      9.4758987523199991      20.202307405279999      7.2693874052799998
    61   3      9.4758987523199991      20.202307405279999      18.596452594719999
    62   3      16.389941247679999      5.6635325947200004      7.2693874052799998
    63   3      16.389941247679999      20.202307405279999      7.2693874052799998
    64   3      9.4758987523199991      5.6635325947200004      18.596452594719999
    65   3      9.4758987523199991      7.2693874052799998      20.202307405279999
    66   3      16.389941247679999      18.596452594719999      5.6635325947200004
    67   3      16.389941247679999      18.596452594719999      20.202307405279999
    68   3      9.4758987523199991      7.2693874052799998      5.6635325947200004
    69   3      9.4758987523199991      18.596452594719999      5.6635325947200004
    70   3      16.389941247679999      7.2693874052799998      20.202307405279999
    71   3      16.389941247679999      7.2693874052799998      5.6635325947200004
    72   3      9.4758987523199991      18.596452594719999      20.202307405279999
    73   3      7.2693874052799998      5.6635325947200004      16.389941247679999
    74   3      18.596452594719999      20.202307405279999      9.4758987523199991
    75   3      18.596452594719999      5.6635325947200004      9.4758987523199991
    76   3      7.2693874052799998      20.202307405279999      16.389941247679999
    77   3      18.596452594719999      20.202307405279999      16.389941247679999
    78   3      7.2693874052799998      5.6635325947200004      9.4758987523199991
    79   3      7.2693874052799998      20.202307405279999      9.4758987523199991
    80   3      18.596452594719999      5.6635325947200004      16.389941247679999
    81   3      5.6635325947200004      9.4758987523199991      18.596452594719999
    82   3      20.202307405279999      16.389941247679999      7.2693874052799998
    83   3      5.6635325947200004      16.389941247679999      7.2693874052799998
    84   3      20.202307405279999      9.4758987523199991      18.596452594719999
    85   3      20.202307405279999      9.4758987523199991      7.2693874052799998
    86   3      5.6635325947200004      16.389941247679999      18.596452594719999
    87   3      20.202307405279999      16.389941247679999      18.596452594719999
    88   3      5.6635325947200004      9.4758987523199991      7.2693874052799998
    89   3      7.2693874052799998      22.408818752319998      18.596452594719999
    90   3      18.596452594719999      3.4570212476799997      7.2693874052799998
    91   3      18.596452594719999      3.4570212476799997      18.596452594719999
    92   3      7.2693874052799998      22.408818752319998      7.2693874052799998
    93   3      18.596452594719999      22.408818752319998      7.2693874052799998
    94   3      7.2693874052799998      3.4570212476799997      18.596452594719999
    95   3      7.2693874052799998      3.4570212476799997      7.2693874052799998
    96   3      18.596452594719999      22.408818752319998      18.596452594719999
    97   3      5.6635325947200004      20.202307405279999      22.408818752319998
    98   3      20.202307405279999      5.6635325947200004      3.4570212476799997
    99   3      5.6635325947200004      5.6635325947200004      3.4570212476799997
   100   3      20.202307405279999      20.202307405279999      22.408818752319998
   101   3      20.202307405279999      5.6635325947200004      22.408818752319998
   102   3      5.6635325947200004      20.202307405279999      3.4570212476799997
   103   3      20.202307405279999      20.202307405279999      3.4570212476799997
   104   3      5.6635325947200004      5.6635325947200004      22.408818752319998
   105   3      7.2693874052799998      18.596452594719999      3.4570212476799997
   106   3      18.596452594719999      7.2693874052799998      22.408818752319998
   107   3      18.596452594719999      18.596452594719999      22.408818752319998
   108   3      7.2693874052799998      7.2693874052799998      3.4570212476799997
   109   3      18.596452594719999      7.2693874052799998      3.4570212476799997
   110   3      7.2693874052799998      18.596452594719999      22.408818752319998
   111   3      7.2693874052799998      7.2693874052799998      22.408818752319998
   112   3      18.596452594719999      18.596452594719999      3.4570212476799997
   113   3      5.6635325947200004      22.408818752319998      5.6635325947200004
   114   3      20.202307405279999      3.4570212476799997      20.202307405279999
   115   3      5.6635325947200004      3.4570212476799997      20.202307405279999
   116   3      20.202307405279999      22.408818752319998      5.6635325947200004
   117   3      20.202307405279999      22.408818752319998      20.202307405279999
   118   3      5.6635325947200004      3.4570212476799997      5.6635325947200004
   119   3      20.202307405279999      3.4570212476799997      5.6635325947200004
   120   3      5.6635325947200004      22.408818752319998      20.202307405279999
   121   3      22.408818752319998      5.6635325947200004      20.202307405279999
   122   3      3.4570212476799997      20.202307405279999      5.6635325947200004
   123   3      3.4570212476799997      5.6635325947200004      5.6635325947200004
   124   3      22.408818752319998      20.202307405279999      20.202307405279999
   125   3      22.408818752319998      20.202307405279999      5.6635325947200004
   126   3      3.4570212476799997      5.6635325947200004      20.202307405279999
   127   3      3.4570212476799997      20.202307405279999      20.202307405279999
   128   3      22.408818752319998      5.6635325947200004      5.6635325947200004
   129   3      22.408818752319998      7.2693874052799998      7.2693874052799998
   130   3      3.4570212476799997      18.596452594719999      18.596452594719999
   131   3      3.4570212476799997      18.596452594719999      7.2693874052799998
   132   3      22.408818752319998      7.2693874052799998      18.596452594719999
   133   3      22.408818752319998      18.596452594719999      18.596452594719999
   134   3      3.4570212476799997      7.2693874052799998      7.2693874052799998
   135   3      3.4570212476799997      7.2693874052799998      18.596452594719999
   136   3      22.408818752319998      18.596452594719999      7.2693874052799998
   137   1      6.4664599999999997      10.051905143279999      6.4664599999999997
   138   1      19.399380000000001          15.81393485672      19.399380000000001
   139   1      19.399380000000001          15.81393485672      6.4664599999999997
   140   1      6.4664599999999997      10.051905143279999      19.399380000000001
   141   1      19.399380000000001      10.051905143279999      19.399380000000001
   142   1      6.4664599999999997          15.81393485672      6.4664599999999997
   143   1      6.4664599999999997          15.81393485672      19.399380000000001
   144   1      19.399380000000001      10.051905143279999      6.4664599999999997
   145   1      6.4664599999999997      6.4664599999999997      10.051905143279999
   146   1      19.399380000000001      19.399380000000001          15.81393485672
   147   1      6.4664599999999997      19.399380000000001          15.81393485672
   148   1      19.399380000000001      6.4664599999999997      10.051905143279999
   149   1      19.399380000000001      19.399380000000001      10.051905143279999
   150   1      6.4664599999999997      6.4664599999999997          15.81393485672
   151   1      19.399380000000001      6.4664599999999997          15.81393485672
   152   1      6.4664599999999997      19.399380000000001      10.051905143279999
   153   1      10.051905143279999      6.4664599999999997      6.4664599999999997
   154   1          15.81393485672      19.399380000000001      19.399380000000001
   155   1          15.81393485672      6.4664599999999997      19.399380000000001
   156   1      10.051905143279999      19.399380000000001      6.4664599999999997
   157   1      10.051905143279999      19.399380000000001      19.399380000000001
   158   1          15.81393485672      6.4664599999999997      6.4664599999999997
   159   1          15.81393485672      19.399380000000001      6.4664599999999997
   160   1      10.051905143279999      6.4664599999999997      19.399380000000001
   161   1      6.4664599999999997      22.984825143279998      19.399380000000001
   162   1      19.399380000000001      2.8810148567199998      6.4664599999999997
   163   1      19.399380000000001      2.8810148567199998      19.399380000000001
   164   1      6.4664599999999997      22.984825143279998      6.4664599999999997
   165   1      19.399380000000001      22.984825143279998      6.4664599999999997
   166   1      6.4664599999999997      2.8810148567199998      19.399380000000001
   167   1      6.4664599999999997      2.8810148567199998      6.4664599999999997
   168   1      19.399380000000001      22.984825143279998      19.399380000000001
   169   1      6.4664599999999997      19.399380000000001      22.984825143279998
   170   1      19.399380000000001      6.4664599999999997      2.8810148567199998
   171   1      6.4664599999999997      6.4664599999999997      2.8810148567199998
   172   1      19.399380000000001      19.399380000000001      22.984825143279998
   173   1      19.399380000000001      6.4664599999999997      22.984825143279998
   174   1      6.4664599999999997      19.399380000000001      2.8810148567199998
   175   1      19.399380000000001      19.399380000000001      2.8810148567199998
   176   1      6.4664599999999997      6.4664599999999997      22.984825143279998
   177   1      22.984825143279998      6.4664599999999997      19.399380000000001
   178   1      2.8810148567199998      19.399380000000001      6.4664599999999997
   179   1      2.8810148567199998      6.4664599999999997      6.4664599999999997
   180   1      22.984825143279998      19.399380000000001      19.399380000000001
   181   1      22.984825143279998      19.399380000000001      6.4664599999999997
   182   1      2.8810148567199998      6.4664599999999997      19.399380000000001
   183   1      2.8810148567199998      19.399380000000001      19.399380000000001
   184   1      22.984825143279998      6.4664599999999997      6.4664599999999997
   185   1      6.4664599999999997      11.541130881279999      6.4664599999999997
   186   1      19.399380000000001      14.324709118719998      19.399380000000001
   187   1      19.399380000000001      14.324709118719998      6.4664599999999997
   188   1      6.4664599999999997      11.541130881279999      19.399380000000001
   189   1      19.399380000000001      11.541130881279999      19.399380000000001
   190   1      6.4664599999999997      14.324709118719998      6.4664599999999997
   191   1      6.4664599999999997      14.324709118719998      19.399380000000001
   192   1      19.399380000000001      11.541130881279999      6.4664599999999997
   193   1      6.4664599999999997      6.4664599999999997      11.541130881279999
   194   1      19.399380000000001      19.399380000000001      14.324709118719998
   195   1      6.4664599999999997      19.399380000000001      14.324709118719998
   196   1      19.399380000000001      6.4664599999999997      11.541130881279999
   197   1      19.399380000000001      19.399380000000001      11.541130881279999
   198   1      6.4664599999999997      6.4664599999999997      14.324709118719998
   199   1      19.399380000000001      6.4664599999999997      14.324709118719998
   200   1      6.4664599999999997      19.399380000000001      11.541130881279999
   201   1      11.541130881279999      6.4664599999999997      6.4664599999999997
   202   1      14.324709118719998      19.399380000000001      19.399380000000001
   203   1      14.324709118719998      6.4664599999999997      19.399380000000001
   204   1      11.541130881279999      19.399380000000001      6.4664599999999997
   205   1      11.541130881279999      19.399380000000001      19.399380000000001
   206   1      14.324709118719998      6.4664599999999997      6.4664599999999997
   207   1      14.324709118719998      19.399380000000001      6.4664599999999997
   208   1      11.541130881279999      6.4664599999999997      19.399380000000001
   209   1      6.4664599999999997          24.47405088128      19.399380000000001
   210   1      19.399380000000001           1.39178911872      6.4664599999999997
   211   1      19.399380000000001           1.39178911872      19.399380000000001
   212   1      6.4664599999999997          24.47405088128      6.4664599999999997
   213   1      19.399380000000001          24.47405088128      6.4664599999999997
   214   1      6.4664599999999997           1.39178911872      19.399380000000001
   215   1      6.4664599999999997           1.39178911872      6.4664599999999997
   216   1      19.399380000000001          24.47405088128      19.399380000000001
   217   1      6.4664599999999997      19.399380000000001          24.47405088128
   218   1      19.399380000000001      6.4664599999999997           1.39178911872
   219   1      6.4664599999999997      6.4664599999999997           1.39178911872
   220   1      19.399380000000001      19.399380000000001          24.47405088128
   221   1      19.399380000000001      6.4664599999999997          24.47405088128
   222   1      6.4664599999999997      19.399380000000001           1.39178911872
   223   1      19.399380000000001      19.399380000000001           1.39178911872
   224   1      6.4664599999999997      6.4664599999999997          24.47405088128
   225   1          24.47405088128      6.4664599999999997      19.399380000000001
   226   1           1.39178911872      19.399380000000001      6.4664599999999997
   227   1           1.39178911872      6.4664599999999997      6.4664599999999997
   228   1          24.47405088128      19.399380000000001      19.399380000000001
   229   1          24.47405088128      19.399380000000001      6.4664599999999997
   230   1           1.39178911872      6.4664599999999997      19.399380000000001
   231   1           1.39178911872      19.399380000000001      19.399380000000001
   232   1          24.47405088128      6.4664599999999997      6.4664599999999997
   233   1      7.3243523152799996          12.23917230536      5.6085676847199997
   234   1          18.54148768472      13.626667694639998      20.257272315279998
   235   1          18.54148768472      13.626667694639998      5.6085676847199997
   236   1      7.3243523152799996          12.23917230536      20.257272315279998
   237   1          18.54148768472          12.23917230536      20.257272315279998
   238   1      7.3243523152799996      13.626667694639998      5.6085676847199997
   239   1      7.3243523152799996      13.626667694639998      20.257272315279998
   240   1          18.54148768472          12.23917230536      5.6085676847199997
   241   1      5.6085676847199997      7.3243523152799996          12.23917230536
   242   1      20.257272315279998          18.54148768472      13.626667694639998
   243   1      5.6085676847199997          18.54148768472      13.626667694639998
   244   1      20.257272315279998      7.3243523152799996          12.23917230536
   245   1      20.257272315279998          18.54148768472          12.23917230536
   246   1      5.6085676847199997      7.3243523152799996      13.626667694639998
   247   1      20.257272315279998      7.3243523152799996      13.626667694639998
   248   1      5.6085676847199997          18.54148768472          12.23917230536
   249   1          12.23917230536      5.6085676847199997      7.3243523152799996
   250   1      13.626667694639998      20.257272315279998          18.54148768472
   251   1      13.626667694639998      5.6085676847199997          18.54148768472
   252   1          12.23917230536      20.257272315279998      7.3243523152799996
   253   1          12.23917230536      20.257272315279998          18.54148768472
   254   1      13.626667694639998      5.6085676847199997      7.3243523152799996
   255   1      13.626667694639998      20.257272315279998      7.3243523152799996
   256   1          12.23917230536      5.6085676847199997          18.54148768472
   257   1          12.23917230536      7.3243523152799996      20.257272315279998
   258   1      13.626667694639998          18.54148768472      5.6085676847199997
   259   1      13.626667694639998          18.54148768472      20.257272315279998
   260   1          12.23917230536      7.3243523152799996      5.6085676847199997
   261   1          12.23917230536          18.54148768472      5.6085676847199997
   262   1      13.626667694639998      7.3243523152799996      20.257272315279998
   263   1      13.626667694639998      7.3243523152799996      5.6085676847199997
   264   1          12.23917230536          18.54148768472      20.257272315279998
   265   1      7.3243523152799996      5.6085676847199997      13.626667694639998
   266   1          18.54148768472      20.257272315279998          12.23917230536
   267   1          18.54148768472      5.6085676847199997          12.23917230536
   268   1      7.3243523152799996      20.257272315279998      13.626667694639998
   269   1          18.54148768472      20.257272315279998      13.626667694639998
   270   1      7.3243523152799996      5.6085676847199997          12.23917230536
   271   1      7.3243523152799996      20.257272315279998          12.23917230536
   272   1          18.54148768472      5.6085676847199997      13.626667694639998
   273   1      5.6085676847199997          12.23917230536          18.54148768472
   274   1      20.257272315279998      13.626667694639998      7.3243523152799996
   275   1      5.6085676847199997      13.626667694639998      7.3243523152799996
   276   1      20.257272315279998          12.23917230536          18.54148768472
   277   1      20.257272315279998          12.23917230536      7.3243523152799996
   278   1      5.6085676847199997      13.626667694639998          18.54148768472
   279   1      20.257272315279998      13.626667694639998          18.54148768472
   280   1      5.6085676847199997          12.23917230536      7.3243523152799996
   281   1      7.3243523152799996          25.17209230536          18.54148768472
   282   1          18.54148768472     0.69374769463999997      7.3243523152799996
   283   1          18.54148768472     0.69374769463999997          18.54148768472
   284   1      7.3243523152799996          25.17209230536      7.3243523152799996
   285   1          18.54148768472          25.17209230536      7.3243523152799996
   286   1      7.3243523152799996     0.69374769463999997          18.54148768472
   287   1      7.3243523152799996     0.69374769463999997      7.3243523152799996
   288   1          18.54148768472          25.17209230536          18.54148768472
   289   1      5.6085676847199997      20.257272315279998          25.17209230536
   290   1      20.257272315279998      5.6085676847199997     0.69374769463999997
   291   1      5.6085676847199997      5.6085676847199997     0.69374769463999997
   292   1      20.257272315279998      20.257272315279998          25.17209230536
   293   1      20.257272315279998      5.6085676847199997          25.17209230536
   294   1      5.6085676847199997      20.257272315279998     0.69374769463999997
   295   1      20.257272315279998      20.257272315279998     0.69374769463999997
   296   1      5.6085676847199997      5.6085676847199997          25.17209230536
   297   1      7.3243523152799996          18.54148768472     0.69374769463999997
   298   1          18.54148768472      7.3243523152799996          25.17209230536
   299   1          18.54148768472          18.54148768472          25.17209230536
   300   1      7.3243523152799996      7.3243523152799996     0.69374769463999997
   301   1          18.54148768472      7.3243523152799996     0.69374769463999997
   302   1      7.3243523152799996          18.54148768472          25.17209230536
   303   1      7.3243523152799996      7.3243523152799996          25.17209230536
   304   1          18.54148768472          18.54148768472     0.69374769463999997
   305   1      5.6085676847199997          25.17209230536      5.6085676847199997
   306   1      20.257272315279998     0.69374769463999997      20.257272315279998
   307   1      5.6085676847199997     0.69374769463999997      20.257272315279998
   308   1      20.257272315279998          25.17209230536      5.6085676847199997
   309   1      20.257272315279998          25.17209230536      20.257272315279998
   310   1      5.6085676847199997     0.69374769463999997      5.6085676847199997
   311   1      20.257272315279998     0.69374769463999997      5.6085676847199997
   312   1      5.6085676847199997          25.17209230536      20.257272315279998
   313   1          25.17209230536      5.6085676847199997      20.257272315279998
   314   1     0.69374769463999997      20.257272315279998      5.6085676847199997
   315   1     0.69374769463999997      5.6085676847199997      5.6085676847199997
   316   1          25.17209230536      20.257272315279998      20.257272315279998
   317   1          25.17209230536      20.257272315279998      5.6085676847199997
   318   1     0.69374769463999997      5.6085676847199997      20.257272315279998
   319   1     0.69374769463999997      20.257272315279998      20.257272315279998
   320   1          25.17209230536      5.6085676847199997      5.6085676847199997
   321   1          25.17209230536      7.3243523152799996      7.3243523152799996
   322   1     0.69374769463999997          18.54148768472          18.54148768472
   323   1     0.69374769463999997          18.54148768472      7.3243523152799996
   324   1          25.17209230536      7.3243523152799996          18.54148768472
   325   1          25.17209230536          18.54148768472          18.54148768472
   326   1     0.69374769463999997      7.3243523152799996      7.3243523152799996
   327   1     0.69374769463999997      7.3243523152799996          18.54148768472
   328   1          25.17209230536          18.54148768472      7.3243523152799996
   329   2      7.9845261495999997      11.670408349599999      4.9483938503999996
   330   2      17.881313850399998           14.1954316504           20.9174461496
   331   2      17.881313850399998           14.1954316504      4.9483938503999996
   332   2      7.9845261495999997      11.670408349599999           20.9174461496
   333   2      17.881313850399998      11.670408349599999           20.9174461496
   334   2      7.9845261495999997           14.1954316504      4.9483938503999996
   335   2      7.9845261495999997           14.1954316504           20.9174461496
   336   2      17.881313850399998      11.670408349599999      4.9483938503999996
   337   2      4.9483938503999996      7.9845261495999997      11.670408349599999
   338   2           20.9174461496      17.881313850399998           14.1954316504
   339   2      4.9483938503999996      17.881313850399998           14.1954316504
   340   2           20.9174461496      7.9845261495999997      11.670408349599999
   341   2           20.9174461496      17.881313850399998      11.670408349599999
   342   2      4.9483938503999996      7.9845261495999997           14.1954316504
   343   2           20.9174461496      7.9845261495999997           14.1954316504
   344   2      4.9483938503999996      17.881313850399998      11.670408349599999
   345   2      11.670408349599999      4.9483938503999996      7.9845261495999997
   346   2           14.1954316504           20.9174461496      17.881313850399998
   347   2           14.1954316504      4.9483938503999996      17.881313850399998
   348   2      11.670408349599999           20.9174461496      7.9845261495999997
   349   2      11.670408349599999           20.9174461496      17.881313850399998
   350   2           14.1954316504      4.9483938503999996      7.9845261495999997
   351   2           14.1954316504           20.9174461496      7.9845261495999997
   352   2      11.670408349599999      4.9483938503999996      17.881313850399998
   353   2      11.670408349599999      7.9845261495999997           20.9174461496
   354   2           14.1954316504      17.881313850399998      4.9483938503999996
   355   2           14.1954316504      17.881313850399998           20.9174461496
   356   2      11.670408349599999      7.9845261495999997      4.9483938503999996
   357   2      11.670408349599999      17.881313850399998      4.9483938503999996
   358   2           14.1954316504      7.9845261495999997           20.9174461496
   359   2           14.1954316504      7.9845261495999997      4.9483938503999996
   360   2      11.670408349599999      17.881313850399998           20.9174461496
   361   2      7.9845261495999997      4.9483938503999996           14.1954316504
   362   2      17.881313850399998           20.9174461496      11.670408349599999
   363   2      17.881313850399998      4.9483938503999996      11.670408349599999
   364   2      7.9845261495999997           20.9174461496           14.1954316504
   365   2      17.881313850399998           20.9174461496           14.1954316504
   366   2      7.9845261495999997      4.9483938503999996      11.670408349599999
   367   2      7.9845261495999997           20.9174461496      11.670408349599999
   368   2      17.881313850399998      4.9483938503999996           14.1954316504
   369   2      4.9483938503999996      11.670408349599999      17.881313850399998
   370   2           20.9174461496           14.1954316504      7.9845261495999997
   371   2      4.9483938503999996           14.1954316504      7.9845261495999997
   372   2           20.9174461496      11.670408349599999      17.881313850399998
   373   2           20.9174461496      11.670408349599999      7.9845261495999997
   374   2      4.9483938503999996           14.1954316504      17.881313850399998
   375   2           20.9174461496           14.1954316504      17.881313850399998
   376   2      4.9483938503999996      11.670408349599999      7.9845261495999997
   377   2      7.9845261495999997      24.603328349599998      17.881313850399998
   378   2      17.881313850399998            1.2625116504      7.9845261495999997
   379   2      17.881313850399998            1.2625116504      17.881313850399998
   380   2      7.9845261495999997      24.603328349599998      7.9845261495999997
   381   2      17.881313850399998      24.603328349599998      7.9845261495999997
   382   2      7.9845261495999997            1.2625116504      17.881313850399998
   383   2      7.9845261495999997            1.2625116504      7.9845261495999997
   384   2      17.881313850399998      24.603328349599998      17.881313850399998
   385   2      4.9483938503999996           20.9174461496      24.603328349599998
   386   2           20.9174461496      4.9483938503999996            1.2625116504
   387   2      4.9483938503999996      4.9483938503999996            1.2625116504
   388   2           20.9174461496           20.9174461496      24.603328349599998
   389   2           20.9174461496      4.9483938503999996      24.603328349599998
   390   2      4.9483938503999996           20.9174461496            1.2625116504
   391   2           20.9174461496           20.9174461496            1.2625116504
   392   2      4.9483938503999996      4.9483938503999996      24.603328349599998
   393   2      7.9845261495999997      17.881313850399998            1.2625116504
   394   2      17.881313850399998      7.9845261495999997      24.603328349599998
   395   2      17.881313850399998      17.881313850399998      24.603328349599998
   396   2      7.9845261495999997      7.9845261495999997            1.2625116504
   397   2      17.881313850399998      7.9845261495999997            1.2625116504
   398   2      7.9845261495999997      17.881313850399998      24.603328349599998
   399   2      7.9845261495999997      7.9845261495999997      24.603328349599998
   400   2      17.881313850399998      17.881313850399998            1.2625116504
   401   2      4.9483938503999996      24.603328349599998      4.9483938503999996
   402   2           20.9174461496            1.2625116504           20.9174461496
   403   2      4.9483938503999996            1.2625116504           20.9174461496
   404   2           20.9174461496      24.603328349599998      4.9483938503999996
   405   2           20.9174461496      24.603328349599998           20.9174461496
   406   2      4.9483938503999996            1.2625116504      4.9483938503999996
   407   2           20.9174461496            1.2625116504      4.9483938503999996
   408   2      4.9483938503999996      24.603328349599998           20.9174461496
   409   2      24.603328349599998      4.9483938503999996           20.9174461496
   410   2            1.2625116504           20.9174461496      4.9483938503999996
   411   2            1.2625116504      4.9483938503999996      4.9483938503999996
   412   2      24.603328349599998           20.9174461496           20.9174461496
   413   2      24.603328349599998           20.9174461496      4.9483938503999996
   414   2            1.2625116504      4.9483938503999996           20.9174461496
   415   2            1.2625116504           20.9174461496           20.9174461496
   416   2      24.603328349599998      4.9483938503999996      4.9483938503999996
   417   2      24.603328349599998      7.9845261495999997      7.9845261495999997
   418   2            1.2625116504      17.881313850399998      17.881313850399998
   419   2            1.2625116504      17.881313850399998      7.9845261495999997
   420   2      24.603328349599998      7.9845261495999997      17.881313850399998
   421   2      24.603328349599998      17.881313850399998      17.881313850399998
   422   2            1.2625116504      7.9845261495999997      7.9845261495999997
   423   2            1.2625116504      7.9845261495999997      17.881313850399998
   424   2      24.603328349599998      17.881313850399998      7.9845261495999997
